Route #1: 1 2 42 21 18 19 24 54 1
Route #2: 1 53 55 56 52 35 44 1
Route #3: 1 10 50 25 13 47 64 26 31 1
Route #4: 1 8 58 12 32 46 14 57 23 36 1
Route #5: 1 59 33 41 9 66 34 5 61 16 40 30 15 1
Route #6: 1 43 28 6 4 22 37 20 1
Route #7: 1 3 62 48 51 29 1
Route #8: 1 27 11 63 17 49 38 65 1
Route #9: 1 7 60 45 39 1
cost 1477.4992708909147